Using license file /home/benedond/gurobi.lic
Using gurobi.env file
Set parameter Threads to value 1
Academic license - for non-commercial use only
Changed value of parameter TimeLimit to 300.0
   Prev: inf  Min: 0.0  Max: inf  Default: inf
Gurobi Optimizer version 9.0.1 build v9.0.1rc0 (linux64)
Optimize a model with 2109 rows, 1958 columns and 9446 nonzeros
Model fingerprint: 0x5271cb6f
Variable types: 60 continuous, 1898 integer (1898 binary)
Coefficient statistics:
  Matrix range     [2e-01, 4e+02]
  Objective range  [5e-03, 3e-01]
  Bounds range     [1e+00, 1e+00]
  RHS range        [1e+00, 1e+03]
Presolve removed 92 rows and 73 columns
Presolve time: 0.04s
Presolved: 2017 rows, 1885 columns, 9100 nonzeros
Variable types: 59 continuous, 1826 integer (1826 binary)
Found heuristic solution: objective 4.5447112

Root relaxation: objective 2.236059e+00, 1945 iterations, 0.06 seconds

    Nodes    |    Current Node    |     Objective Bounds      |     Work
 Expl Unexpl |  Obj  Depth IntInf | Incumbent    BestBd   Gap | It/Node Time

     0     0    2.23606    0  162    4.54471    2.23606  50.8%     -    0s
H    0     0                       3.8880667    2.23606  42.5%     -    0s
     0     0    2.36928    0  136    3.88807    2.36928  39.1%     -    0s
     0     0    2.41543    0  127    3.88807    2.41543  37.9%     -    0s
     0     0    2.48185    0  156    3.88807    2.48185  36.2%     -    0s
     0     0    2.49609    0  159    3.88807    2.49609  35.8%     -    0s
     0     0    2.59610    0  124    3.88807    2.59610  33.2%     -    0s
H    0     0                       3.8709704    2.59610  32.9%     -    0s
     0     0    2.61342    0  156    3.87097    2.61342  32.5%     -    0s
     0     0    2.61514    0  133    3.87097    2.61514  32.4%     -    0s
     0     0    2.61573    0  165    3.87097    2.61573  32.4%     -    0s
     0     0    2.61628    0  130    3.87097    2.61628  32.4%     -    0s
     0     0    2.61630    0  130    3.87097    2.61630  32.4%     -    0s
     0     0    2.65040    0  111    3.87097    2.65040  31.5%     -    0s
H    0     0                       3.7144519    2.65040  28.6%     -    0s
H    0     0                       3.3523037    2.65040  20.9%     -    1s
     0     0    2.66852    0  139    3.35230    2.66852  20.4%     -    1s
     0     0    2.67422    0  142    3.35230    2.67422  20.2%     -    1s
     0     0    2.67548    0  141    3.35230    2.67548  20.2%     -    1s
     0     0    2.67565    0  149    3.35230    2.67565  20.2%     -    1s
     0     0    2.69384    0  111    3.35230    2.69384  19.6%     -    1s
     0     0    2.69564    0  138    3.35230    2.69564  19.6%     -    1s
     0     0    2.69571    0  137    3.35230    2.69571  19.6%     -    1s
     0     0    2.70373    0  125    3.35230    2.70373  19.3%     -    1s
     0     0    2.71024    0  135    3.35230    2.71024  19.2%     -    1s
     0     0    2.71083    0  136    3.35230    2.71083  19.1%     -    1s
     0     0    2.71085    0  138    3.35230    2.71085  19.1%     -    1s
     0     0    2.71847    0  168    3.35230    2.71847  18.9%     -    1s
     0     0    2.71977    0  151    3.35230    2.71977  18.9%     -    1s
     0     0    2.72109    0  132    3.35230    2.72109  18.8%     -    1s
     0     0    2.72183    0  174    3.35230    2.72183  18.8%     -    1s
     0     0    2.72206    0  161    3.35230    2.72206  18.8%     -    1s
     0     0    2.72739    0  187    3.35230    2.72739  18.6%     -    1s
     0     0    2.72833    0  145    3.35230    2.72833  18.6%     -    1s
     0     0    2.72846    0  140    3.35230    2.72846  18.6%     -    1s
     0     0    2.73255    0  180    3.35230    2.73255  18.5%     -    1s
     0     0    2.73295    0  154    3.35230    2.73295  18.5%     -    1s
     0     0    2.73303    0  163    3.35230    2.73303  18.5%     -    1s
     0     0    2.73718    0  185    3.35230    2.73718  18.3%     -    1s
     0     0    2.73809    0  162    3.35230    2.73809  18.3%     -    1s
     0     0    2.73881    0  212    3.35230    2.73881  18.3%     -    1s
     0     0    2.73919    0  174    3.35230    2.73919  18.3%     -    1s
     0     0    2.73925    0  169    3.35230    2.73925  18.3%     -    1s
     0     0    2.74148    0  159    3.35230    2.74148  18.2%     -    1s
     0     0    2.74191    0  154    3.35230    2.74191  18.2%     -    1s
     0     0    2.74223    0  165    3.35230    2.74223  18.2%     -    1s
     0     0    2.74381    0  183    3.35230    2.74381  18.2%     -    1s
     0     0    2.74381    0  179    3.35230    2.74381  18.2%     -    2s
     0     2    2.74458    0  173    3.35230    2.74458  18.1%     -    2s
H   27    27                       3.3292000    2.76726  16.9%   196    3s
H   80    80                       3.2809163    2.76726  15.7%   172    4s
H   80    80                       3.2780297    2.76726  15.6%   172    4s
H   81    81                       3.2681556    2.76726  15.3%   172    4s
   154   141    3.02059   26   88    3.26816    2.77171  15.2%   153    5s
H  203   178                       3.2622889    2.77177  15.0%   140    5s
   514   415    3.23501   51  115    3.26229    2.77530  14.9%   114   10s
   575   456    3.08569   62  180    3.26229    2.81060  13.8%   102   15s
H  576   432                       3.2298815    2.81060  13.0%   102   15s
H  576   409                       3.1975852    2.81073  12.1%   102   15s
H  591   397                       3.1759408    2.81817  11.3%   127   19s
   593   401    2.89179   20  117    3.17594    2.82448  11.1%   129   20s
   784   416    2.86668   32  145    3.17594    2.82465  11.1%   127   25s
H  846   415                       3.1738222    2.82465  11.0%   135   26s
H  846   379                       3.1310148    2.82465  9.78%   135   26s
H  882   348                       3.1166815    2.82465  9.37%   134   27s
   937   356    2.95531   36  134    3.11668    2.82976  9.21%   144   30s
  1205   430    3.08501   68   74    3.11668    2.84750  8.64%   146   35s
  1468   524    2.97407   44  145    3.11668    2.86457  8.09%   146   40s
H 1529   301                       3.0349334    2.86577  5.57%   148   40s
H 1557   259                       3.0179334    2.87342  4.79%   147   41s
H 1662   275                       3.0179333    2.87695  4.67%   144   42s
H 1689   294                       3.0179331    2.87709  4.67%   144   43s
  1810   347    2.99536   28   91    3.01793    2.88635  4.36%   145   45s
H 1946   370                       3.0109334    2.89309  3.91%   144   46s
  2174   409    2.92931   30  123    3.01093    2.90040  3.67%   145   50s
  2531   532    2.97077   50   82    3.01093    2.91466  3.20%   144   55s
H 2768   268                       2.9671630    2.92222  1.51%   145   59s
H 2769   265                       2.9663852    2.92222  1.49%   145   59s
H 2794   251                       2.9652297    2.92367  1.40%   145   59s
* 2795   251              44       2.9649185    2.92367  1.39%   145   59s
  2832   255     cutoff   20         2.96492    2.92495  1.35%   145   60s
H 3038   133                       2.9604148    2.94436  0.54%   145   63s

Cutting planes:
  Gomory: 8
  Cover: 32
  Implied bound: 10
  Clique: 13
  MIR: 146
  StrongCG: 3
  Flow cover: 355
  GUB cover: 3
  Mod-K: 1
  RLT: 15
  Relax-and-lift: 239

Explored 3236 nodes (468517 simplex iterations) in 64.95 seconds
Thread count was 1 (of 4 available processors)

Solution count 10: 2.96041 2.96492 2.96639 ... 3.17594

Optimal solution found (tolerance 1.00e-04)
Best objective 2.960414834641e+00, best bound 2.960148697552e+00, gap 0.0090%
